Problem:    
Rows:       113
Columns:    45 (34 integer, 34 binary)
Non-zeros:  348
Status:     INTEGER OPTIMAL
Objective:  value = 25.255144 (MINimum)

   No.   Row name        Activity     Lower bound   Upper bound
------ ------------    ------------- ------------- -------------
     1 r.5                   25.2551             0               
     2 r.6                   25.2551      -996.986               
     3 r.7                   1025.26             0               
     4 r.8                  -990.219      -994.725               
     5 r.9                   1025.26             0               
     6 r.10                 -974.745      -976.977               
     7 r.11                  25.2551             0               
     8 r.12                  25.2551      -972.962               
     9 r.13                  25.2551             0               
    10 r.14                 -993.994      -994.253               
    11 r.15                  1025.26             0               
    12 r.16                 -995.494      -995.753               
    13 r.17                  25.2551             0               
    14 r.18                 -986.047      -986.306               
    15 r.19                  1025.26             0               
    16 r.20                 -974.745      -984.525               
    17 r.21                  1025.26             0               
    18 r.22                 -999.741      -999.741               
    19 r.23                  25.2551             0               
    20 r.24                   0.2587      -997.623               
    21 r.25                        1             1             = 
    22 r.26                        1             1             = 
    23 r.27                        1             1             = 
    24 r.28                        1             1             = 
    25 r.29                        1             1             = 
    26 r.30                     1001             2               
    27 r.31                    -1001         -1001               
    28 r.32                     2000      -976.977               
    29 r.33                     1001             2               
    30 r.34                    -1001         -1001               
    31 r.35                  2015.47      -972.962               
    32 r.36                     1000             2               
    33 r.37                    -1000         -1001               
    34 r.38                  980.751      -994.253               
    35 r.39                        2             2               
    36 r.40                       -2         -1001               
    37 r.41                 -5.27494      -995.753               
    38 r.42                     1000             2               
    39 r.43                    -1000         -1001               
    40 r.44                  988.698      -986.306               
    41 r.45                        2             2               
    42 r.46                       -2         -1001               
    43 r.47                 -984.525      -984.525               
    44 r.48                  24.9964      -996.986               
    45 r.49                 -990.478      -994.725               
    46 r.50                  24.9964      -996.986               
    47 r.51                 -990.478      -994.725               
    48 r.52                     1001             2               
    49 r.53                    -1001         -1001               
    50 r.54                     2000        3.0144               
    51 r.55                     1001             2               
    52 r.56                    -1001         -1001               
    53 r.57                  1984.53       5.27494               
    54 r.58                     1001             2               
    55 r.59                    -1001         -1001               
    56 r.60                  980.751      -994.253               
    57 r.61                     1001             2               
    58 r.62                    -1001         -1001               
    59 r.63                  1979.25      -995.753               
    60 r.64                     1001             2               
    61 r.65                    -1001         -1001               
    62 r.66                  988.698      -986.306               
    63 r.67                     1001             2               
    64 r.68                    -1001         -1001               
    65 r.69                     2000      -984.525               
    66 r.70                 -975.004      -976.977               
    67 r.71                  24.9964      -972.962               
    68 r.72                 -975.004      -976.977               
    69 r.73                  24.9964      -972.962               
    70 r.74                     1000             2               
    71 r.75                    -1000         -1001               
    72 r.76                  3019.25        3.0144               
    73 r.77                        2             2               
    74 r.78                       -2         -1001               
    75 r.79                  5.27494       5.27494               
    76 r.80                     1001             2               
    77 r.81                    -1001         -1001               
    78 r.82                  3019.25       23.0231               
    79 r.83                     1001             2               
    80 r.84                    -1001         -1001               
    81 r.85                  2020.75       27.0378               
    82 r.86                     1000             2               
    83 r.87                    -1000         -1001               
    84 r.88                  2007.95      -986.306               
    85 r.89                        2             2               
    86 r.90                       -2         -1001               
    87 r.91                 -979.251      -984.525               
    88 r.92                 -994.253      -994.253               
    89 r.93                 -995.753      -995.753               
    90 r.94                 -994.253      -994.253               
    91 r.95                 -995.753      -995.753               
    92 r.96                     1000             2               
    93 r.97                    -1000         -1001               
    94 r.98                   3011.3        3.0144               
    95 r.99                        2             2               
    96 r.100                      -2         -1001               
    97 r.101                 984.525       5.27494               
    98 r.102                    1001             2               
    99 r.103                   -1001         -1001               
   100 r.104                  3011.3       23.0231               
   101 r.105                    1001             2               
   102 r.106                   -1001         -1001               
   103 r.107                    2000       27.0378               
   104 r.108                    1000             2               
   105 r.109                   -1000         -1001               
   106 r.110                 1992.05        5.7473               
   107 r.111                       2             2               
   108 r.112                      -2         -1001               
   109 r.113                 979.251         4.247               
   110 r.114                -986.306      -986.306               
   111 r.115                -975.004      -984.525               
   112 r.116                -986.306      -986.306               
   113 r.117                -975.004      -984.525               

   No. Column name       Activity     Lower bound   Upper bound
------ ------------    ------------- ------------- -------------
     1 tt                    25.2551             0               
     2 s_1_1        *              0             0             1 
     3 t_1_1                       0             0               
     4 s_2_1        *              1             0             1 
     5 t_2_1                 15.4745             0               
     6 s_1_2        *              1             0             1 
     7 t_1_2                       0             0               
     8 s_2_2        *              0             0             1 
     9 t_2_2                       0             0               
    10 s_1_3        *              0             0             1 
    11 t_1_3                 1019.25             0               
    12 s_2_3        *              1             0             1 
    13 t_2_3                 20.7494             0               
    14 s_1_4        *              0             0             1 
    15 t_1_4                  1011.3             0               
    16 s_2_4        *              1             0             1 
    17 t_2_4                       0             0               
    18 s_1_5        *              1             0             1 
    19 t_1_5                 24.9964             0               
    20 s_2_5        *              0             0             1 
    21 t_2_5                 24.9964             0               
    22 r_1_1_2      *              1             0             1 
    23 u_1_1_2      *              0             0             1 
    24 r_2_1_2      *              1             0             1 
    25 u_2_1_2      *              0             0             1 
    26 r_1_1_3      *              1             0             1 
    27 u_1_1_3      *              0             0             1 
    28 r_2_1_3      *              0             0             1 
    29 u_2_1_3      *              0             0             1 
    30 r_1_1_4      *              1             0             1 
    31 u_1_1_4      *              0             0             1 
    32 r_2_1_4      *              0             0             1 
    33 u_2_1_4      *              1             0             1 
    34 r_1_2_3      *              1             0             1 
    35 u_1_2_3      *              0             0             1 
    36 r_2_2_3      *              1             0             1 
    37 u_2_2_3      *              0             0             1 
    38 r_1_2_4      *              1             0             1 
    39 u_1_2_4      *              0             0             1 
    40 r_2_2_4      *              1             0             1 
    41 u_2_2_4      *              0             0             1 
    42 r_1_3_4      *              1             0             1 
    43 u_1_3_4      *              0             0             1 
    44 r_2_3_4      *              0             0             1 
    45 u_2_3_4      *              1             0             1 

Integer feasibility conditions:

KKT.PE: max.abs.err = 4.55e-13 on row 84
        max.rel.err = 7.53e-17 on row 84
        High quality

KKT.PB: max.abs.err = 1.14e-13 on row 18
        max.rel.err = 1.14e-16 on row 18
        High quality

End of output
